(set-info :smt-lib-version 2.6)
(set-logic QF_UFLRA)
(set-info :source |
MathSat group

|)
(set-info :category "random")
(set-info :status sat)
(declare-fun x0 () Real)
(declare-fun x1 () Real)
(declare-fun x2 () Real)
(declare-fun x3 () Real)
(declare-fun x4 () Real)
(declare-fun x5 () Real)
(declare-fun x6 () Real)
(declare-fun x7 () Real)
(declare-fun x8 () Real)
(declare-fun x9 () Real)
(declare-fun x10 () Real)
(declare-fun x11 () Real)
(declare-fun x12 () Real)
(declare-fun x13 () Real)
(declare-fun x14 () Real)
(declare-fun x15 () Real)
(declare-fun x16 () Real)
(declare-fun x17 () Real)
(declare-fun x18 () Real)
(declare-fun x19 () Real)
(declare-fun x20 () Real)
(declare-fun x21 () Real)
(declare-fun x22 () Real)
(declare-fun x23 () Real)
(declare-fun x24 () Real)
(declare-fun x25 () Real)
(declare-fun x26 () Real)
(declare-fun x27 () Real)
(declare-fun x28 () Real)
(declare-fun x29 () Real)
(declare-fun x30 () Real)
(declare-fun x31 () Real)
(declare-fun x32 () Real)
(declare-fun x33 () Real)
(declare-fun x34 () Real)
(declare-fun x35 () Real)
(declare-fun x36 () Real)
(declare-fun x37 () Real)
(declare-fun x38 () Real)
(declare-fun x39 () Real)
(declare-fun f0_1 (Real) Real)
(declare-fun f0_2 (Real Real) Real)
(declare-fun f0_3 (Real Real Real) Real)
(declare-fun f0_4 (Real Real Real Real) Real)
(declare-fun P0 () Bool)
(declare-fun P1 () Bool)
(declare-fun P2 () Bool)
(declare-fun P3 () Bool)
(declare-fun P4 () Bool)
(declare-fun P5 () Bool)
(declare-fun P6 () Bool)
(declare-fun P7 () Bool)
(declare-fun P8 () Bool)
(declare-fun P9 () Bool)
(declare-fun P10 () Bool)
(declare-fun P11 () Bool)
(declare-fun P12 () Bool)
(declare-fun P13 () Bool)
(declare-fun P14 () Bool)
(declare-fun P15 () Bool)
(declare-fun P16 () Bool)
(declare-fun P17 () Bool)
(declare-fun P18 () Bool)
(declare-fun P19 () Bool)
(declare-fun P20 () Bool)
(declare-fun P21 () Bool)
(declare-fun P22 () Bool)
(declare-fun P23 () Bool)
(declare-fun P24 () Bool)
(declare-fun P25 () Bool)
(declare-fun P26 () Bool)
(declare-fun P27 () Bool)
(declare-fun P28 () Bool)
(declare-fun P29 () Bool)
(declare-fun P30 () Bool)
(declare-fun P31 () Bool)
(declare-fun P32 () Bool)
(declare-fun P33 () Bool)
(declare-fun P34 () Bool)
(declare-fun P35 () Bool)
(declare-fun P36 () Bool)
(declare-fun P37 () Bool)
(declare-fun P38 () Bool)
(declare-fun P39 () Bool)
(assert (let ((?v_54 (distinct (- (+ (* 27 x22) (* 13 x36)) (* 44 x22)) 47)) (?v_164 (<= (- (+ (* 44 x37) (* 31 x13)) (* 39 x10)) 27)) (?v_65 (<= (- (- (* 49 x23) (* 37 x37)) (* 5 x7)) 47)) (?v_3 (* 23 x31)) (?v_156 (< (+ (- (* 51 x37) (* 40 x27)) (* 57 x6)) 40)) (?v_66 (* 3 x10))) (let ((?v_53 (< (- (+ (* 20 x39) ?v_66) (* 35 x35)) 54)) (?v_19 (= (- (- (* 40 x25) (* 22 x34)) (* 40 x21)) 15)) (?v_89 (distinct (- (+ (* 30 x16) (* 31 x34)) (* 9 x14)) 36)) (?v_75 (<= (- (- (* 10 x38) (* 10 x39)) (* 7 x36)) 44)) (?v_106 (< (- (+ (* 23 x1) (* 55 x30)) (* 49 x39)) 3)) (?v_90 (< (+ (- (* 49 x32) (* 3 x9)) (* 39 x16)) 43)) (?v_68 (f0_1 x28))) (let ((?v_163 (distinct (f0_1 x23) ?v_68)) (?v_127 (= (f0_1 x38) x35)) (?v_101 (distinct ?v_68 (f0_2 x3 x7))) (?v_31 (= x37 (f0_2 x7 x30))) (?v_120 (f0_1 x22))) (let ((?v_2 (= ?v_120 (f0_2 x17 x19))) (?v_1 (distinct x8 x6)) (?v_51 (distinct x22 (f0_1 x37))) (?v_81 (distinct x3 (f0_1 x8))) (?v_50 (= (f0_2 x13 x13) x17)) (?v_133 (= x30 ?v_120)) (?v_44 (= x6 (f0_1 x9))) (?v_20 (f0_1 x14))) (let ((?v_29 (distinct ?v_20 (f0_2 x33 x14))) (?v_41 (= (f0_2 x22 x38) x37)) (?v_112 (= (f0_1 x5) ?v_20)) (?v_57 (= x7 (f0_2 x2 x3))) (?v_144 (distinct x34 x9)) (?v_52 (distinct (f0_2 x32 x6) (f0_1 x10))) (?v_114 (distinct x14 (f0_2 x20 x2))) (?v_25 (distinct (f0_1 x4) (f0_1 x32))) (?v_34 (= (f0_2 x23 x27) (f0_2 x33 x19))) (?v_191 (distinct (f0_1 x0) (f0_2 x33 x9))) (?v_42 (f0_1 x31))) (let ((?v_74 (= x15 ?v_42)) (?v_83 (distinct (f0_2 x17 x22) x11)) (?v_150 (= x12 x25)) (?v_108 (distinct (f0_2 x1 x27) (f0_1 x35))) (?v_10 (distinct ?v_42 (f0_2 x12 x17))) (?v_21 (distinct (f0_2 x17 x25) (f0_1 x30))) (?v_40 (distinct (f0_1 x33) (f0_1 x39))) (?v_137 (distinct (f0_2 x9 x32) (f0_1 x34))) (?v_18 (= (f0_2 x10 x23) x21)) (?v_125 (distinct (f0_1 x24) x33)) (?v_131 (distinct (f0_1 x25) (f0_1 x6))) (?v_141 (distinct (f0_2 x37 x25) (f0_2 x0 x32))) (?v_158 (= x0 (f0_1 x21))) (?v_203 (distinct (f0_1 x19) (f0_2 x16 x33))) (?v_13 (distinct (f0_1 x20) (f0_2 x1 x13))) (?v_32 (= (f0_2 x39 x17) (f0_2 x26 x25))) (?v_99 (distinct x14 x15)) (?v_197 (= x19 (f0_1 x26))) (?v_76 (distinct (f0_2 x33 x25) (f0_2 x31 x31))) (?v_177 (not ?v_51)) (?v_0 (not P36)) (?v_132 (not P7)) (?v_176 (not ?v_2)) (?v_12 (not P38)) (?v_37 (not ?v_191)) (?v_84 (not P6)) (?v_28 (not ?v_1))) (let ((?v_8 (not ?v_21)) (?v_59 (not ?v_54)) (?v_11 (not ?v_144)) (?v_6 (not P1)) (?v_15 (not ?v_90)) (?v_9 (not ?v_29)) (?v_86 (not P8)) (?v_14 (not P16)) (?v_118 (not P0)) (?v_5 (not ?v_156)) (?v_121 (not P22)) (?v_157 (not ?v_40)) (?v_35 (not ?v_114)) (?v_92 (not ?v_10)) (?v_79 (not ?v_65)) (?v_45 (not P33)) (?v_23 (not P4)) (?v_161 (not ?v_76)) (?v_26 (not ?v_34)) (?v_80 (not P27)) (?v_159 (not P34)) (?v_30 (not P5)) (?v_88 (not P25)) (?v_69 (not ?v_125)) (?v_143 (not ?v_99)) (?v_48 (not ?v_18)) (?v_204 (not P26)) (?v_27 (not ?v_19)) (?v_60 (not P2)) (?v_139 (not ?v_13)) (?v_102 (not ?v_25)) (?v_72 (not P35)) (?v_181 (not P9)) (?v_175 (not ?v_31)) (?v_152 (not ?v_32)) (?v_77 (not ?v_83)) (?v_58 (not P19)) (?v_136 (not ?v_41)) (?v_46 (not ?v_81)) (?v_107 (not ?v_44)) (?v_162 (not ?v_197)) (?v_98 (not ?v_203)) (?v_165 (not ?v_52)) (?v_56 (not P29)) (?v_146 (not ?v_57)) (?v_128 (not ?v_50)) (?v_70 (not ?v_106)) (?v_180 (not ?v_163)) (?v_130 (not ?v_89)) (?v_116 (not ?v_74)) (?v_117 (not P13)) (?v_93 (not P3)) (?v_104 (not P21)) (?v_129 (not P15)) (?v_105 (not P23)) (?v_119 (not ?v_101)) (?v_122 (not P11)) (?v_111 (not P32)) (?v_138 (not ?v_108)) (?v_142 (not ?v_112)) (?v_148 (not P12)) (?v_135 (not ?v_127)) (?v_174 (not ?v_131)) (?v_185 (not ?v_53)) (?v_182 (not ?v_164)) (?v_200 (not P31)) (?v_160 (not P14)) (?v_184 (not P18)) (?v_169 (not P17)) (?v_205 (not P37)) (?v_199 (not ?v_75)) (?v_155 (not P20)) (?v_168 (not P39)) (?v_170 (not ?v_137)) (?v_172 (not ?v_141)) (?v_195 (not P28)) (?v_188 (not ?v_158)) (?v_171 (not ?v_133)) (?v_186 (not P30)) (?v_189 (not P10)) (?v_202 (not P24)) (?v_22 (< (+ (* 56 x12) (* 47 x17) (* 39 x7)) 36))) (let ((?v_67 (not ?v_22)) (?v_94 (<= (+ (* 35 x6) (* 22 x31) (* 20 x24)) 32))) (let ((?v_194 (not ?v_94)) (?v_43 (<= (- (* 50 x14) (* 48 x33)) 22)) (?v_85 (< (+ (* 11 x8) (* 34 x11) (* 17 x22)) 57))) (let ((?v_166 (not ?v_85)) (?v_140 (not ?v_43))) (let ((?v_196 (or ?v_140 ?v_119)) (?v_36 (<= (+ (- (* 19 x38) (* 48 x1)) (* 15 x19)) (- 5))) (?v_24 (<= (- (- (* 29 x34) (* 4 x34)) (* 24 x18)) (- 38)))) (let ((?v_145 (not ?v_24)) (?v_153 (<= (- (- (* (- 11) x2) ?v_3) 0) 45))) (let ((?v_7 (not ?v_153)) (?v_38 (< (+ (- 0 (* 48 x8)) (* 8 x31)) (- 30)))) (let ((?v_4 (not ?v_38)) (?v_71 (<= (- (- (* (- 56) x7) (* 41 x38)) (* 34 x12)) (- 1))) (?v_16 (<= (+ (* (- 31) x13) (* 20 x11) (* 43 x27)) 48)) (?v_82 (<= (+ (- (* 36 x30) (* 32 x8)) (* 36 x20)) (- 53))) (?v_49 (< (+ (* (- 55) x38) (* 42 x8) x33) 24)) (?v_87 (< (- (- (* (- 52) x11) (* 38 x27)) ?v_3) (- 1))) (?v_73 (< (+ (* (- 56) x8) (* 41 x20) (* 57 x31)) (- 46))) (?v_47 (< (+ (- (* 17 x5) (* 41 x12)) (* 19 x13)) (- 8))) (?v_55 (< (- (+ (* (- 14) x5) (* 14 x11)) (* 33 x14)) 3))) (let ((?v_96 (not ?v_16)) (?v_17 (<= (+ (* (- 5) x11) (* 5 x6) (* 33 x26)) 58))) (let ((?v_109 (not ?v_17)) (?v_64 (<= (- (- (* (- 31) x34) (* 25 x8)) (* 16 x2)) 15)) (?v_115 (<= (- (- (* (- 34) x36) 0) (* 29 x10)) 10))) (let ((?v_39 (not ?v_115)) (?v_63 (<= (- (- (* 19 x37) (* 24 x23)) (* 35 x15)) (- 42)))) (let ((?v_179 (not ?v_63)) (?v_97 (< (+ (* (- 12) x32) (* 14 x2)) 59)) (?v_33 (= (+ (- (* 11 x2) (* 32 x1)) (* 27 x15)) (- 50))) (?v_91 (< (- (- (* 51 x39) (* 51 x25)) (* 56 x23)) (- 21)))) (let ((?v_147 (not ?v_91)) (?v_134 (< (+ (* (- 24) x35) (* 47 x29) (* 44 x38)) (- 46))) (?v_123 (<= (- (+ (* (- 41) x26) (* 42 x36)) (* 32 x26)) 11)) (?v_61 (not ?v_47)) (?v_62 (not ?v_36)) (?v_110 (<= (+ (* (- 41) x23) (* 33 x9) (* 6 x35)) 58))) (let ((?v_113 (not ?v_110)) (?v_95 (= (- (- (* (- 25) x20) (* 51 x23)) (* 6 x38)) 59))) (let ((?v_190 (not ?v_95)) (?v_173 (<= (+ (- (* 7 x34) (* 46 x39)) x7) (- 50))) (?v_167 (not ?v_64)) (?v_78 (= (- (+ (* 26 x17) (* 14 x10)) ?v_66) (- 6))) (?v_103 (not ?v_71)) (?v_126 (not ?v_73))) (let ((?v_100 (not ?v_78)) (?v_124 (not ?v_82)) (?v_154 (not ?v_87)) (?v_149 (< (- (- (* (- 46) x37) (* 26 x6)) (* 13 x5)) (- 17))) (?v_192 (or ?v_110 ?v_28)) (?v_187 (not ?v_97))) (let ((?v_151 (not ?v_149)) (?v_183 (not ?v_49)) (?v_178 (not ?v_134)) (?v_193 (not ?v_123)) (?v_198 (not ?v_173)) (?v_201 (not ?v_33))) (and (and (and (and (and (and (and (and (and (and (and (and (and (and (and (and (and (and (and (and (and (and (and (and (and (and (and (and (and (and (and (and (and (and (and (and (and (and (and (and (and (and (and (and (and (and (and (and (and (and (and (and (and (and (and (and (and (and (and (and (and (and (and (and (and (and (and (and (and (and (and (and (and (and (and (and (and (and (and (and (and (and (and (and (and (and (and (and (and (and (and (and (and (and (and (and (and (and (and (and (and (and (and (and (and (and (and (and (and (and (and (and (and (and (and (and (and (and (and (and (and (and (and (and (and (and (and (and (and (and (and (and (and (and (and (and (and (and (and (and (and (and (and (and (and (and (and (and (and (and (and (and (and (and (and (and (and (and (and (and (and (and (and (and (and (and (and (and (and (and (and (and (and (and (and (and (and (and (and (and (and (and (and (and (and (and (and (and (and (and (and (and (and (and (and (and (and (and (and (and (and (and (and (and (and (and (and (and (and (and (and (and (and (and (and (and (and (and (and (and (and (and (and (and (and (and (and (and (and (and (and (and (and (and (and (and (and (and (and (and (and (and (and (and (and (and (and (and (and (and (and (and (and (and (and (and (and (and (and (and (and (and (and (and (and (and (and (and (and (and (and (and (and (and (and (and (and (and (and (and (and (and (and (and (and (and (and (and (and (and (and (and (and (and (and (and (and (and (and (and (and (and (and (and (and (and (and (and (and (and (and (and (and (and (and (and (and (and (and (and (and (and (and (and (and (and (and (and (and (and (and (and (and (and (and (and (and (and (and (and (and (and (and (and (and (and (and (and (and (and (and (and (and (and (and (and (and (and (and (and (and (and (and (and (and (and (and (and (and (and (and (and (and (and (and (and (and (and (and (and (and (and (and (and (and (and (and (and (and (and (and (and (and (and (and (and (and (and (and (and (and (and (and (and (and (and (and (and (and (and (and (and (and (and (and (and (and (and (and (and (and (and (and (and (and (and (and (and (and (and (and (and (and (and (and (and (and (and (and (and (and (and (and (and (and (and (and (and (and (and (and (and (and (and (and (and (and (and (and (and (and (and (and (and (and (and (and (and (and (and (and (and (and (and (and (and (and (and (and (or (or ?v_177 ?v_0) ?v_132) (or (or ?v_31 ?v_176) ?v_1)) (or (or ?v_36 P31) ?v_0)) (or (or ?v_145 ?v_12) ?v_37)) (or (or ?v_7 P8) ?v_67)) (or (or P27 ?v_84) ?v_28)) (or (or ?v_194 ?v_0) ?v_8)) (or (or ?v_4 P19) ?v_71)) (or (or ?v_16 ?v_59) ?v_2)) (or (or ?v_82 ?v_41) ?v_11)) (or (or ?v_18 ?v_6) ?v_15)) (or (or ?v_9 ?v_101) ?v_86)) (or (or ?v_49 ?v_13) ?v_87)) (or (or ?v_14 ?v_4) ?v_73)) (or (or ?v_118 P28) ?v_53)) (or (or ?v_5 P13) ?v_121)) (or (or P12 P33) ?v_157)) (or (or ?v_47 ?v_19) ?v_5)) (or (or ?v_6 P24) ?v_7)) (or (or ?v_35 ?v_8) ?v_9)) (or (or ?v_10 ?v_92) ?v_55)) (or (or ?v_79 ?v_45) ?v_11)) (or (or ?v_158 ?v_137) P36)) (or (or P35 ?v_12) ?v_23)) (or (or ?v_43 ?v_13) ?v_14)) (or (or ?v_161 P9) ?v_26)) (or (or P12 P21) ?v_15)) (or (or ?v_96 P18) ?v_17)) (or (or ?v_80 ?v_32) ?v_159)) (or (or ?v_30 ?v_57) P34)) (or (or ?v_88 ?v_69) ?v_108)) (or (or P13 ?v_109) ?v_143)) (or (or ?v_48 ?v_19) ?v_64)) (or (or ?v_112 ?v_21) ?v_204)) (or (or ?v_39 ?v_27) ?v_22)) (or (or ?v_23 ?v_7) ?v_60)) (or (or P32 ?v_139) P23)) (or (or ?v_179 ?v_5) ?v_25)) (or (or ?v_24 ?v_97) P9)) (or (or P15 P6) ?v_75)) (or (or ?v_102 ?v_10) ?v_26)) (or (or P39 ?v_27) P29)) (or (or P35 ?v_28) ?v_29)) (or (or ?v_33 ?v_13) ?v_30)) (or (or ?v_72 ?v_181) ?v_175)) (or (or ?v_152 ?v_33) ?v_147)) (or (or ?v_34 ?v_13) ?v_77)) (or (or ?v_31 ?v_58) ?v_30)) (or (or ?v_35 ?v_52) ?v_134)) (or (or ?v_13 P12) ?v_36)) (or (or ?v_37 ?v_26) P34)) (or (or ?v_38 ?v_39) ?v_40)) (or (or ?v_136 ?v_50) ?v_44)) (or (or ?v_123 ?v_46) ?v_74)) (or (or P13 ?v_43) P21)) (or (or ?v_2 P28) ?v_107)) (or (or ?v_45 ?v_46) ?v_4)) (or (or ?v_61 ?v_141) P9)) (or (or P15 ?v_2) ?v_31)) (or (or ?v_62 ?v_162) ?v_98)) (or (or P3 ?v_48) ?v_9)) (or (or ?v_49 ?v_50) ?v_51)) (or (or ?v_12 ?v_165) ?v_113)) (or (or ?v_19 ?v_44) ?v_0)) (or (or ?v_53 P3) ?v_7)) (or (or ?v_54 ?v_56) ?v_10)) (or (or ?v_32 ?v_55) P11)) (or (or ?v_56 ?v_1) ?v_190)) (or (or ?v_146 ?v_55) P5)) (or (or ?v_58 ?v_15) ?v_59)) (or (or ?v_60 ?v_10) ?v_55)) (or (or ?v_61 ?v_128) P9)) (or (or ?v_62 ?v_70) P28)) (or (or P33 P18) P13)) (or (or ?v_173 ?v_63) ?v_167)) (or (or ?v_65 ?v_78) P36)) (or (or ?v_67 ?v_5) ?v_180)) (or (or ?v_69 ?v_70) ?v_103)) (or (or ?v_72 ?v_45) ?v_48)) (or (or ?v_166 ?v_130) ?v_126)) (or (or ?v_64 ?v_34) ?v_116)) (or (or P34 P23) P36)) (or (or ?v_75 ?v_117) ?v_8)) (or (or ?v_93 ?v_76) ?v_77)) (or (or ?v_100 ?v_35) ?v_67)) (or (or ?v_79 P1) P4)) (or (or ?v_80 ?v_48) ?v_72)) (or (or ?v_54 ?v_81) ?v_124)) (or (or ?v_83 P8) P25)) (or (or P24 ?v_84) ?v_85)) (or (or ?v_86 ?v_78) ?v_154)) (or (or P19 ?v_30) ?v_88)) (or (or ?v_80 ?v_127) ?v_89)) (or (or ?v_90 P8) ?v_4)) (or (or ?v_104 ?v_79) ?v_12)) (or (or ?v_91 ?v_92) ?v_87)) (or (or ?v_14 ?v_51) ?v_93)) (or (or ?v_0 ?v_149) ?v_31)) (or (or ?v_94 P5) ?v_95)) (or (or ?v_96 ?v_88) P19)) (or (or ?v_97 ?v_131) ?v_17)) (or (or ?v_98 ?v_87) ?v_64)) (or (or ?v_99 P37) ?v_55)) (or (or ?v_46 ?v_129) ?v_105)) (or (or ?v_48 P22) P17)) (or (or ?v_21 P4) ?v_15)) (or (or ?v_100 ?v_101) P37)) (or (or P37 ?v_64) ?v_102)) (or (or ?v_19 ?v_22) P21)) (or (or ?v_21 ?v_28) ?v_76)) (or (or ?v_119 ?v_32) ?v_6)) (or (or ?v_103 ?v_103) ?v_122)) (or (or P12 ?v_104) ?v_95)) (or (or ?v_33 ?v_105) ?v_48)) (or (or ?v_106 ?v_43) ?v_18)) (or (or P9 ?v_111) ?v_35)) (or (or ?v_99 ?v_107) ?v_138)) (or (or ?v_19 P39) P38)) (or (or ?v_109 ?v_110) ?v_111)) (or (or ?v_142 ?v_43) ?v_113)) (or (or P27 ?v_94) ?v_53)) (or (or ?v_114 ?v_90) P36)) (or (or ?v_10 ?v_115) ?v_116)) (or (or ?v_117 P21) ?v_109)) (or (or ?v_118 ?v_52) ?v_31)) (or (or P1 ?v_119) P34)) (or (or ?v_88 ?v_55) ?v_112)) (or (or ?v_112 ?v_114) ?v_133)) (or (or ?v_121 (not ?v_55)) ?v_148)) (or (or ?v_33 ?v_122) P19)) (or (or ?v_123 ?v_52) ?v_51)) (or ?v_192 ?v_124)) (or (or ?v_8 ?v_125) ?v_77)) (or (or P20 ?v_126) ?v_1)) (or (or ?v_67 P33) P12)) (or (or ?v_48 ?v_135) ?v_125)) (or (or P21 ?v_150) P30)) (or (or ?v_28 ?v_98) ?v_5)) (or (or ?v_43 ?v_128) P15)) (or (or ?v_44 ?v_16) ?v_129)) (or (or P24 P21) ?v_4)) (or (or ?v_130 ?v_50) P9)) (or (or ?v_174 ?v_132) ?v_86)) (or (or P39 ?v_76) ?v_115)) (or (or ?v_84 ?v_133) ?v_99)) (or (or ?v_185 ?v_131) ?v_0)) (or (or ?v_32 ?v_91) ?v_134)) (or (or ?v_51 ?v_55) ?v_114)) (or (or ?v_135 ?v_67) ?v_48)) (or (or P23 ?v_130) ?v_70)) (or (or P9 ?v_83) ?v_4)) (or (or ?v_100 ?v_136) ?v_137)) (or (or ?v_2 ?v_182) P26)) (or (or ?v_138 ?v_115) ?v_139)) (or (or ?v_50 ?v_56) ?v_200)) (or (or ?v_82 ?v_69) ?v_30)) (or (or ?v_160 P19) P3)) (or (or ?v_140 ?v_75) P39)) (or (or ?v_140 P29) ?v_59)) (or (or ?v_123 P2) P39)) (or (or ?v_141 ?v_124) ?v_23)) (or (or ?v_95 P8) P20)) (or (or ?v_69 ?v_142) ?v_100)) (or (or ?v_143 ?v_96) ?v_5)) (or (or P9 P6) ?v_37)) (or (or P12 ?v_71) ?v_144)) (or (or ?v_145 ?v_76) ?v_31)) (or (or P19 ?v_17) ?v_80)) (or (or ?v_82 ?v_7) P32)) (or (or ?v_123 ?v_76) ?v_8)) (or (or ?v_129 ?v_187) ?v_146)) (or (or P26 ?v_124) ?v_47)) (or (or ?v_146 ?v_116) ?v_147)) (or (or ?v_99 ?v_10) ?v_115)) (or (or ?v_184 ?v_95) ?v_148)) (or (or ?v_169 P22) ?v_34)) (or (or P27 ?v_140) ?v_70)) (or (or ?v_52 ?v_48) ?v_85)) (or (or ?v_1 ?v_70) ?v_65)) (or (or ?v_44 ?v_151) ?v_63)) (or (or ?v_60 ?v_205) ?v_113)) (or (or ?v_150 P2) P30)) (or (or ?v_23 ?v_151) ?v_183)) (or (or ?v_130 ?v_152) ?v_27)) (or (or ?v_19 ?v_126) ?v_122)) (or (or ?v_121 ?v_63) ?v_84)) (or (or ?v_142 ?v_53) ?v_146)) (or (or ?v_129 ?v_199) ?v_27)) (or (or ?v_101 ?v_27) ?v_153)) (or (or ?v_155 ?v_109) ?v_118)) (or (or P0 ?v_154) ?v_26)) (or (or ?v_142 ?v_34) ?v_95)) (or (or ?v_48 ?v_57) ?v_31)) (or (or ?v_43 ?v_155) ?v_117)) (or (or ?v_178 ?v_147) ?v_114)) (or (or ?v_28 ?v_0) P38)) (or (or ?v_150 ?v_40) ?v_100)) (or (or P36 ?v_109) P24)) (or (or ?v_19 ?v_98) ?v_156)) (or (or ?v_157 ?v_81) ?v_158)) (or (or ?v_159 P14) P7)) (or (or ?v_168 P27) ?v_106)) (or (or P17 ?v_6) ?v_153)) (or (or ?v_148 ?v_93) ?v_160)) (or (or ?v_132 ?v_149) ?v_46)) (or (or ?v_161 ?v_24) ?v_87)) (or (or P35 ?v_81) ?v_47)) (or (or P8 ?v_170) ?v_41)) (or (or ?v_172 ?v_72) ?v_102)) (or (or P11 P2) ?v_95)) (or (or ?v_79 ?v_161) ?v_51)) (or (or ?v_125 P9) ?v_162)) (or (or ?v_8 P38) ?v_163)) (or (or P37 ?v_17) ?v_164)) (or (or P2 ?v_130) ?v_54)) (or (or ?v_131 ?v_104) ?v_103)) (or (or ?v_74 ?v_32) ?v_52)) (or (or ?v_165 ?v_91) ?v_10)) (or (or P32 ?v_40) ?v_155)) (or (or ?v_24 ?v_102) P10)) (or (or P28 ?v_56) ?v_47)) (or (or ?v_30 ?v_134) ?v_166)) (or (or ?v_45 ?v_43) ?v_44)) (or (or ?v_61 ?v_15) P15)) (or (or P2 ?v_149) ?v_195)) (or (or ?v_71 ?v_64) ?v_102)) (or (or ?v_50 ?v_36) ?v_167)) (or (or ?v_100 ?v_188) ?v_163)) (or (or P3 ?v_171) ?v_124)) (or (or ?v_133 ?v_19) ?v_51)) (or (or P7 ?v_83) P29)) (or (or ?v_81 ?v_10) ?v_63)) (or (or ?v_89 ?v_166) ?v_168)) (or (or P31 ?v_22) ?v_186)) (or (or ?v_169 ?v_45) ?v_91)) (or (or ?v_147 ?v_109) ?v_170)) (or (or ?v_89 P9) ?v_193)) (or (or ?v_63 ?v_121) ?v_58)) (or (or P31 ?v_71) ?v_138)) (or (or ?v_59 ?v_163) ?v_77)) (or (or ?v_166 ?v_139) ?v_131)) (or (or ?v_171 ?v_48) ?v_83)) (or (or ?v_167 ?v_169) ?v_99)) (or (or ?v_151 ?v_172) ?v_44)) (or (or P23 ?v_43) P36)) (or (or ?v_124 ?v_95) P5)) (or (or ?v_173 ?v_6) P25)) (or (or ?v_139 P27) ?v_76)) (or (or ?v_24 ?v_174) ?v_101)) (or (or ?v_15 ?v_55) P15)) (or (or P17 ?v_32) ?v_55)) (or (or ?v_170 ?v_38) ?v_116)) (or (or ?v_198 ?v_34) ?v_103)) (or (or ?v_41 P21) ?v_166)) (or (or ?v_73 ?v_86) ?v_121)) (or (or P3 ?v_189) ?v_164)) (or (or ?v_58 ?v_27) ?v_1)) (or (or P15 P13) ?v_11)) (or (or P14 ?v_106) ?v_83)) (or (or ?v_112 ?v_143) P31)) (or (or P28 ?v_172) ?v_160)) (or (or P36 ?v_0) P0)) (or (or ?v_21 P17) ?v_25)) (or (or ?v_28 ?v_83) ?v_175)) (or (or ?v_26 ?v_119) ?v_125)) (or (or ?v_69 ?v_110) ?v_61)) (or (or ?v_157 ?v_176) ?v_177)) (or (or ?v_178 ?v_80) ?v_133)) (or (or ?v_201 ?v_56) ?v_92)) (or (or ?v_67 ?v_26) P39)) (or (or ?v_146 ?v_147) ?v_158)) (or (or ?v_11 ?v_115) ?v_176)) (or (or ?v_57 P17) ?v_22)) (or (or P13 P3) ?v_30)) (or (or ?v_179 P19) ?v_180)) (or (or ?v_181 P39) ?v_50)) (or (or P13 ?v_137) ?v_165)) (or (or ?v_23 P26) ?v_31)) (or (or ?v_157 P15) ?v_85)) (or (or ?v_150 ?v_182) ?v_65)) (or (or ?v_183 ?v_149) ?v_92)) (or (or ?v_50 ?v_184) ?v_83)) (or (or ?v_144 ?v_185) ?v_49)) (or (or ?v_72 ?v_54) ?v_124)) (or (or ?v_161 ?v_116) ?v_145)) (or (or P22 P5) ?v_36)) (or ?v_196 ?v_59)) (or (or ?v_58 P30) ?v_54)) (or (or ?v_154 ?v_18) ?v_8)) (or (or P26 ?v_186) ?v_109)) (or (or ?v_115 ?v_62) P22)) (or (or ?v_98 ?v_0) ?v_101)) (or (or P2 ?v_172) ?v_127)) (or (or ?v_1 ?v_173) P10)) (or (or P29 P21) ?v_18)) (or (or ?v_65 ?v_123) P24)) (or (or ?v_101 ?v_139) ?v_106)) (or (or ?v_187 ?v_106) ?v_188)) (or (or ?v_174 ?v_126) ?v_21)) (or (or ?v_84 ?v_159) ?v_180)) (or (or P7 ?v_81) ?v_36)) (or (or ?v_157 ?v_91) ?v_57)) (or (or ?v_189 ?v_144) ?v_0)) (or (or P28 ?v_116) ?v_79)) (or (or ?v_15 ?v_190) ?v_17)) (or (or ?v_100 ?v_87) P3)) (or (or ?v_146 ?v_21) P12)) (or (or ?v_107 P3) ?v_59)) (or (or ?v_167 ?v_191) ?v_34)) (or (or P2 ?v_0) ?v_119)) (or (or ?v_158 ?v_176) ?v_132)) (or ?v_192 ?v_191)) (or (or P26 ?v_15) P37)) (or (or ?v_173 ?v_85) ?v_77)) (or (or ?v_193 ?v_7) ?v_47)) (or (or ?v_56 ?v_50) ?v_177)) (or (or ?v_159 ?v_94) ?v_140)) (or (or ?v_191 ?v_136) ?v_0)) (or (or ?v_81 ?v_114) ?v_65)) (or (or ?v_33 ?v_121) ?v_48)) (or (or ?v_145 ?v_1) P7)) (or (or ?v_170 ?v_89) ?v_32)) (or (or ?v_161 ?v_70) ?v_25)) (or (or ?v_35 ?v_113) ?v_46)) (or (or ?v_171 ?v_106) ?v_155)) (or (or ?v_135 ?v_45) P10)) (or (or ?v_193 ?v_23) ?v_124)) (or (or ?v_162 ?v_57) ?v_157)) (or (or ?v_70 ?v_151) ?v_184)) (or (or ?v_1 ?v_79) ?v_35)) (or (or ?v_186 ?v_19) P16)) (or (or ?v_161 ?v_76) ?v_179)) (or (or ?v_194 P9) ?v_123)) (or (or ?v_172 P24) ?v_9)) (or (or ?v_101 P29) ?v_65)) (or (or P29 ?v_24) P32)) (or (or ?v_54 P21) ?v_162)) (or (or P8 ?v_129) ?v_170)) (or (or ?v_182 P30) ?v_29)) (or (or ?v_147 ?v_179) ?v_21)) (or (or ?v_116 ?v_137) ?v_49)) (or (or ?v_48 ?v_106) ?v_122)) (or (or ?v_188 ?v_177) ?v_126)) (or (or P11 ?v_90) P2)) (or (or ?v_43 ?v_54) ?v_14)) (or (or ?v_15 P10) ?v_146)) (or (or ?v_118 ?v_187) P1)) (or (or ?v_161 ?v_47) ?v_117)) (or (or ?v_130 ?v_65) ?v_127)) (or (or ?v_183 ?v_72) P34)) (or (or P35 P13) ?v_147)) (or (or ?v_63 P12) ?v_124)) (or (or ?v_163 ?v_195) ?v_22)) (or (or ?v_149 ?v_58) ?v_194)) (or (or ?v_89 ?v_188) ?v_36)) (or (or ?v_65 ?v_61) ?v_75)) (or ?v_196 P16)) (or (or ?v_59 ?v_27) ?v_148)) (or (or ?v_10 ?v_67) P34)) (or (or P4 ?v_99) ?v_88)) (or (or ?v_126 ?v_7) ?v_202)) (or (or ?v_50 P7) ?v_45)) (or (or P1 ?v_32) P9)) (or (or P17 ?v_9) ?v_55)) (or (or P13 P18) ?v_76)) (or (or ?v_115 ?v_135) ?v_33)) (or (or ?v_90 ?v_7) ?v_112)) (or (or ?v_25 ?v_61) ?v_17)) (or (or ?v_96 ?v_194) ?v_49)) (or (or ?v_167 ?v_124) ?v_43)) (or (or ?v_115 P34) ?v_118)) (or (or ?v_119 ?v_115) ?v_92)) (or (or ?v_197 ?v_56) ?v_132)) (or (or P25 ?v_166) ?v_176)) (or (or P26 ?v_112) ?v_132)) (or (or ?v_107 ?v_75) ?v_116)) (or (or ?v_31 ?v_8) ?v_149)) (or (or ?v_12 P3) ?v_177)) (or (or ?v_80 ?v_134) P31)) (or (or ?v_155 ?v_57) ?v_26)) (or (or ?v_127 P6) ?v_116)) (or (or ?v_162 ?v_193) ?v_165)) (or (or ?v_21 ?v_186) ?v_88)) (or (or ?v_130 ?v_0) ?v_177)) (or (or ?v_57 ?v_190) ?v_91)) (or (or ?v_179 ?v_7) ?v_188)) (or (or ?v_129 P26) P6)) (or (or ?v_18 ?v_72) ?v_186)) (or (or ?v_109 ?v_198) ?v_150)) (or (or ?v_115 ?v_21) ?v_47)) (or (or ?v_89 ?v_194) ?v_74)) (or (or ?v_128 ?v_91) ?v_49)) (or (or ?v_133 ?v_87) P19)) (or (or P31 ?v_169) ?v_78)) (or (or ?v_117 ?v_103) ?v_79)) (or (or P22 ?v_96) ?v_169)) (or (or ?v_198 ?v_22) ?v_57)) (or (or ?v_76 ?v_70) ?v_118)) (or (or ?v_49 ?v_133) ?v_80)) (or (or P23 ?v_140) ?v_98)) (or (or ?v_199 ?v_16) ?v_32)) (or (or ?v_33 ?v_62) ?v_40)) (or (or ?v_94 ?v_19) ?v_80)) (or (or P25 ?v_56) ?v_114)) (or (or ?v_47 ?v_43) ?v_85)) (or (or ?v_113 ?v_128) ?v_194)) (or (or P5 P8) ?v_137)) (or (or ?v_49 ?v_96) ?v_76)) (or (or P29 ?v_142) ?v_189)) (or (or ?v_56 ?v_31) ?v_67)) (or (or ?v_47 ?v_16) ?v_109)) (or (or ?v_108 P23) ?v_19)) (or (or ?v_17 ?v_144) ?v_78)) (or (or ?v_168 ?v_70) ?v_75)) (or (or ?v_77 P17) ?v_200)) (or (or ?v_159 ?v_4) ?v_102)) (or (or ?v_88 ?v_184) P21)) (or (or ?v_115 ?v_160) ?v_67)) (or (or ?v_81 P6) P29)) (or (or ?v_151 ?v_193) ?v_33)) (or (or ?v_51 ?v_189) ?v_49)) (or (or P9 ?v_48) ?v_79)) (or (or ?v_75 ?v_175) ?v_72)) (or (or ?v_115 ?v_56) ?v_94)) (or (or ?v_35 ?v_57) ?v_123)) (or (or ?v_201 ?v_12) ?v_152)) (or (or ?v_6 ?v_31) ?v_65)) (or (or ?v_137 ?v_102) ?v_9)) (or (or ?v_36 ?v_70) ?v_123)) (or (or P20 ?v_54) ?v_164)) (or (or ?v_133 ?v_43) P21)) (or (or P5 ?v_112) ?v_62)) (or (or P1 ?v_138) ?v_202)) (or (or P23 ?v_203) ?v_41)) (or (or ?v_2 ?v_130) ?v_140)) (or (or ?v_32 P2) ?v_177)) (or (or ?v_161 ?v_21) ?v_17)) (or (or ?v_91 ?v_174) ?v_81)) (or (or P5 P7) ?v_128)) (or (or ?v_62 ?v_40) ?v_0)) (or (or P11 ?v_45) ?v_72)) (or (or ?v_143 ?v_126) ?v_185)) (or (or ?v_185 ?v_112) ?v_7)) (or (or ?v_59 P7) ?v_199)) (or (or ?v_5 P22) ?v_28)) (or (or ?v_115 ?v_64) P31)) (or (or ?v_16 ?v_204) ?v_46)) (or (or ?v_133 ?v_194) ?v_78)) (or (or ?v_54 ?v_44) ?v_174)) (or (or ?v_44 P8) ?v_37)) (or (or ?v_93 ?v_87) ?v_113)) (or (or P4 ?v_54) ?v_134)) (or (or ?v_48 P35) ?v_61)) (or (or ?v_115 P14) P10)) (or (or ?v_195 ?v_186) ?v_35)) (or (or ?v_59 ?v_39) P36)) (or (or ?v_142 P31) P34)) (or (or ?v_70 ?v_197) P35)) (or (or ?v_191 ?v_203) ?v_161)) (or (or ?v_63 ?v_88) ?v_175)) (or (or ?v_203 ?v_138) ?v_132)) (or (or ?v_40 ?v_48) ?v_57)) (or (or (not ?v_150) ?v_127) ?v_197)) (or (or ?v_109 ?v_67) P3)) (or (or P29 ?v_201) P9)) (or (or ?v_41 ?v_186) ?v_48)) (or (or ?v_40 ?v_143) ?v_96)) (or (or P39 ?v_181) ?v_90)) (or (or ?v_52 ?v_135) P9)) (or (or ?v_148 ?v_129) ?v_1)) (or (or ?v_50 ?v_121) ?v_115)) (or (or P24 ?v_149) ?v_125)) (or (or ?v_8 ?v_19) ?v_116)) (or (or ?v_149 ?v_6) ?v_46)) (or (or ?v_37 ?v_126) ?v_82)) (or (or ?v_10 ?v_76) ?v_129)) (or (or ?v_205 ?v_30) ?v_182)) (or (or ?v_150 P15) ?v_181)) (or (or ?v_113 ?v_11) ?v_114)) (or (or ?v_44 ?v_26) ?v_62))))))))))))))))))))))))))
(check-sat)
(exit)
